
List of user-set options:

                                    Name   Value                used
                           compl_inf_tol = 1                     yes
                         constr_viol_tol = 1                     yes
                            dual_inf_tol = 1000                  yes
                           linear_solver = ma97                  yes
                              ma86_small = 1e-30                  no
                                  ma86_u = 0.0001                 no
                              ma97_order = best                  yes
                              ma97_small = 1e-30                 yes
                            ma97_switch1 = at_start              yes
                            ma97_switch2 = od_hd_reuse           yes
                                  ma97_u = 1e-06                 yes
                               ma97_umax = 0.5                   yes
                                max_iter = 1000                  yes
                    max_refinement_steps = 20                    yes
                    min_refinement_steps = 5                     yes
                                 mu_init = 1e-06                 yes
           mu_superlinear_decrease_power = 1.25                  yes
                   nlp_scaling_min_value = 1e-08                 yes
                        option_file_name = Preset_Case_486_pf.opt  yes
                             output_file = ./tmp/Preset_Case_486_pf.output  yes
                      print_user_options = yes                   yes
        required_infeasibility_reduction = 1                      no
                                     tol = 1e-08                 yes
                   warm_start_bound_frac = 1e-20                 yes
                   warm_start_bound_push = 1e-20                 yes
                   warm_start_init_point = yes                   yes
              warm_start_mult_bound_push = 1e-20                 yes
                warm_start_mult_init_max = 1e+40                 yes
             warm_start_slack_bound_frac = 1e-20                 yes
             warm_start_slack_bound_push = 1e-20                 yes

******************************************************************************
This program contains Ipopt, a library for large-scale nonlinear optimization.
 Ipopt is released as open source code under the Eclipse Public License (EPL).
         For more information visit http://projects.coin-or.org/Ipopt
******************************************************************************

This is Ipopt version 3.12.10, running with linear solver ma97.

Number of nonzeros in equality constraint Jacobian...:   123443
Number of nonzeros in inequality constraint Jacobian.:      213
Number of nonzeros in Lagrangian Hessian.............:    49069

Total number of variables............................:    31591
                     variables with only lower bounds:    12912
                variables with lower and upper bounds:    15130
                     variables with only upper bounds:        0
Total number of equality constraints.................:    31483
Total number of inequality constraints...............:       25
        inequality constraints with only lower bounds:        4
   inequality constraints with lower and upper bounds:        0
        inequality constraints with only upper bounds:       21

iter    objective    inf_pr   inf_du lg(mu)  ||d||  lg(rg) alpha_du alpha_pr  ls
   0 -5.2159920e+00 4.13e-03 1.02e+00  -6.0 0.00e+00    -  0.00e+00 0.00e+00   0
   1 -5.2152824e+00 1.72e-02 1.02e+00  -6.0 2.78e+05    -  1.23e-04 7.23e-05h  5
   2 -5.2167000e+00 1.71e-02 5.11e+01  -6.0 3.15e+03    -  2.28e-01 1.94e-03h  1
   3 -5.3290089e+00 9.11e-01 3.03e+02  -6.0 3.15e+03    -  5.47e-02 1.54e-01f  1
   4 -5.4212837e+00 9.72e+00 5.14e+02  -6.0 4.40e+03    -  6.93e-01 1.61e-01h  1
   5 -5.4314500e+00 9.49e+00 5.15e+02  -6.0 2.44e+03    -  4.85e-01 2.53e-02h  1
   6 -5.5374872e+00 7.08e+00 7.44e+02  -6.0 2.09e+03    -  1.87e-01 2.54e-01h  1
   7 -5.5310867e+00 2.01e+00 2.85e+02  -6.0 2.09e+01  -4.0 9.59e-03 7.16e-01h  1
   8 -5.7070379e+00 1.32e+01 1.51e+03  -6.0 2.66e+03    -  4.79e-03 5.72e-01f  1
   9 -5.6539457e+00 9.97e-02 6.67e+04  -6.0 1.52e+01  -4.5 4.44e-01 9.93e-01h  1
iter    objective    inf_pr   inf_du lg(mu)  ||d||  lg(rg) alpha_du alpha_pr  ls
  10 -5.6539839e+00 9.93e-02 6.63e+04  -6.0 1.41e+01  -5.0 1.75e-04 3.35e-03h  1
  11 -5.6553092e+00 7.65e-02 5.82e+04  -6.0 9.33e+01  -5.4 3.48e-01 2.30e-01f  1
  12 -5.6789170e+00 9.56e-01 1.79e+04  -6.0 2.01e+01  -5.0 3.24e-01 1.00e+00f  1
  13 -5.6773902e+00 6.00e-02 4.74e+03  -6.0 2.59e+01  -5.5 7.93e-01 1.00e+00h  1
  14 -5.6831405e+00 3.00e-02 1.86e+02  -6.0 5.22e+01  -6.0 1.00e+00 7.21e-01h  1
  15 -5.6916330e+00 1.02e-01 2.22e+00  -6.0 7.39e+01  -6.4 1.00e+00 1.00e+00h  1
  16 -5.6971331e+00 5.90e-01 3.22e+00  -6.0 1.40e+02  -6.9 1.00e+00 1.00e+00h  1
  17 -5.7043097e+00 1.24e+00 2.62e+01  -6.0 7.55e+02  -7.4 2.92e-01 2.14e-01h  1
  18 -5.7166159e+00 1.31e+00 6.06e+01  -6.0 2.12e+02  -7.0 1.00e+00 1.00e+00h  1
  19 -5.7186410e+00 1.24e+00 3.47e+04  -6.0 3.87e+02  -7.4 3.10e-01 6.28e-02h  1
iter    objective    inf_pr   inf_du lg(mu)  ||d||  lg(rg) alpha_du alpha_pr  ls
  20 -5.7365620e+00 1.22e+00 8.61e+02  -6.0 2.07e+02  -7.0 1.00e+00 1.00e+00h  1
  21 -5.7416416e+00 1.04e+00 5.27e+04  -6.0 2.84e+02  -7.5 2.93e-01 1.89e-01h  1
  22 -5.7780576e+00 1.79e+01 5.29e+05  -6.0 9.89e+02  -8.0 2.30e-01 9.38e-01h  1
  23r-5.7780576e+00 1.79e+01 1.00e+03   1.3 0.00e+00  -6.6 0.00e+00 3.31e-07R  3
  24r-5.7892883e+00 1.79e+01 1.00e+03   1.3 8.66e+04    -  2.81e-07 6.89e-08f  1
  25 -5.7888128e+00 1.77e+01 2.08e+04  -6.0 1.99e+02    -  7.18e-07 1.49e-02h  1
  26 -5.7843088e+00 1.52e+01 1.79e+04  -6.0 1.45e+02    -  3.28e-02 1.37e-01h  1
  27 -5.7823538e+00 1.43e+01 1.68e+04  -6.0 4.69e+01    -  2.19e-01 6.39e-02h  1
  28 -5.7532659e+00 7.30e-01 8.58e+02  -6.0 2.13e+01    -  2.54e-01 9.49e-01h  1
  29 -5.7531342e+00 6.91e-01 8.11e+02  -6.0 1.94e+00    -  8.79e-01 5.43e-02h  1
iter    objective    inf_pr   inf_du lg(mu)  ||d||  lg(rg) alpha_du alpha_pr  ls
  30 -5.7530863e+00 2.79e-04 6.10e+01  -6.0 3.30e+00    -  3.57e-01 1.00e+00h  1
  31 -5.7540976e+00 6.86e-04 3.85e+00  -6.0 6.17e+00    -  8.92e-01 9.65e-01h  1
  32 -5.7589075e+00 5.35e-02 9.53e-01  -6.0 5.26e+01    -  8.76e-01 1.00e+00f  1
  33 -5.7776839e+00 1.07e+00 7.16e+00  -6.0 2.36e+02    -  8.33e-01 1.00e+00h  1
  34 -5.7821207e+00 9.79e-01 2.43e+01  -6.0 4.43e+02    -  4.28e-01 9.62e-02h  1
  35 -5.7941986e+00 6.91e-01 6.37e+00  -6.0 2.71e+02    -  6.63e-01 7.47e-01h  1
  36 -5.7957910e+00 9.27e-01 1.15e+04  -6.0 5.42e+02    -  4.34e-02 2.14e-01h  1
  37 -5.7915185e+00 2.03e+00 9.45e+03  -6.0 3.95e+02    -  2.33e-01 1.00e+00H  1
  38 -5.7907920e+00 1.88e-01 1.94e+02  -6.0 2.26e+02    -  6.72e-01 1.00e+00h  1
  39 -5.7915318e+00 7.02e-01 1.64e+01  -6.0 2.73e+02    -  8.97e-01 1.00e+00h  1
iter    objective    inf_pr   inf_du lg(mu)  ||d||  lg(rg) alpha_du alpha_pr  ls
  40 -5.7915173e+00 6.68e-01 1.52e+01  -6.0 4.31e+02    -  9.55e-01 7.73e-02h  4
  41 -5.7912606e+00 4.20e-01 1.42e+02  -6.0 4.93e+02    -  9.87e-01 1.00e+00H  1
  42 -5.7912277e+00 2.51e-01 9.13e+02  -6.0 5.35e+02    -  1.00e+00 1.00e+00H  1
  43 -5.7912291e+00 1.06e-02 7.60e-03  -6.0 2.42e+01    -  1.00e+00 1.00e+00h  1
  44 -5.7912289e+00 3.04e-07 1.17e-07  -6.0 1.40e-01    -  1.00e+00 1.00e+00h  1
  45 -5.7914302e+00 5.68e+00 5.16e+01  -7.5 8.01e+02    -  6.13e-01 7.58e-01h  1
  46 -5.7914093e+00 1.53e+00 8.18e+00  -7.5 2.29e+02    -  9.31e-01 8.39e-01h  1
  47 -5.7913977e+00 2.15e-02 1.48e-01  -7.5 3.51e+01    -  1.00e+00 1.00e+00h  1
  48 -5.7913975e+00 1.20e-05 3.55e-06  -7.5 8.85e-01    -  1.00e+00 1.00e+00h  1
  49 -5.7913975e+00 2.94e-10 5.33e-12  -7.5 1.36e-04    -  1.00e+00 1.00e+00h  1
iter    objective    inf_pr   inf_du lg(mu)  ||d||  lg(rg) alpha_du alpha_pr  ls
  50 -5.7913991e+00 8.41e-03 8.30e-01  -9.0 2.74e+01    -  9.26e-01 8.36e-01h  1
  51 -5.7913993e+00 3.32e-04 1.52e-01  -9.0 4.53e+00    -  9.65e-01 1.00e+00h  1
  52 -5.7913993e+00 3.86e-10 4.42e-09  -9.0 5.20e-03    -  1.00e+00 1.00e+00h  1

Number of Iterations....: 52

                                   (scaled)                 (unscaled)
Objective...............:  -4.5245307184868055e+00   -5.7913993196631113e+00
Dual infeasibility......:   4.4177709643574839e-09    5.6547468343775795e-09
Constraint violation....:   2.9410947288699418e-10    3.8562575355172157e-10
Complementarity.........:   1.4063797891514016e-09    1.8001661301137939e-09
Overall NLP error.......:   4.4177709643574839e-09    5.6547468343775795e-09


Number of objective function evaluations             = 72
Number of objective gradient evaluations             = 53
Number of equality constraint evaluations            = 72
Number of inequality constraint evaluations          = 72
Number of equality constraint Jacobian evaluations   = 54
Number of inequality constraint Jacobian evaluations = 54
Number of Lagrangian Hessian evaluations             = 52
Total CPU secs in IPOPT (w/o function evaluations)   =    115.452
Total CPU secs in NLP function evaluations           =      2.007

EXIT: Optimal Solution Found.
